0
Node Left Objective IInf Best_Integer Best_Bound ItCnt Gap
0 0 43.0201 6 43.0201 54
0 0 44.1279 8 Cuts:7 71
0 0 46.3029 7 Cuts:15 85
0 0 47.1425 8 Cuts:11 98
0 0 47.6678 8 Cuts:11 111
0+ 0 nan nan 52.9813 47.6678 nan 10.03%
0+ 0 nan nan 52.9813 47.6678 nan 10.03%
0 0 47.6678 8 52.9813 47.6678 178 10.03%
0 0 48.0127 8 52.9813 Cuts:7 186 9.38%
0 0 48.2229 8 52.9813 Fract:1 193 8.98%
0 0 48.2487 8 52.9813 Cuts:3 198 8.93%
0 2 48.5010 6 52.9813 48.7806 198 7.93%
CPXPARAM_MIP_Cuts_Gomory-Disjunctive-MIRCut-FlowCovers:Gomory 0
CPXPARAM_MIP_Cuts_Gomory-Disjunctive-MIRCut-FlowCovers:Disjunctive 0
CPXPARAM_MIP_Cuts_Gomory-Disjunctive-MIRCut-FlowCovers:MIRCut 5
CPXPARAM_MIP_Cuts_Gomory-Disjunctive-MIRCut-FlowCovers:FlowCovers 5
1
Node Left Objective IInf Best_Integer Best_Bound ItCnt Gap
0 0 2.5600 6 2.5600 61
0 0 2.8244 6 Cuts:6 76
0 0 3.6302 6 Cuts:10 90
0+ 0 nan nan 11.3251 3.6302 nan 67.95%
0 0 3.9509 7 11.3251 Cuts:7 105 65.11%
0 0 4.4208 7 11.3251 Cuts:9 120 60.96%
0 0 6.1284 7 11.3251 Cuts:14 132 45.89%
0 0 6.2131 6 11.3251 Cuts:2 137 45.14%
0 0 6.2594 6 11.3251 Cuts:2 143 44.73%
0 0 6.2595 6 11.3251 Flowcuts:1 144 44.73%
0 2 6.2595 6 11.3251 6.4983 144 42.62%
CPXPARAM_MIP_Cuts_Gomory-Disjunctive-MIRCut-FlowCovers:Gomory 1
CPXPARAM_MIP_Cuts_Gomory-Disjunctive-MIRCut-FlowCovers:Disjunctive 1
CPXPARAM_MIP_Cuts_Gomory-Disjunctive-MIRCut-FlowCovers:MIRCut 0
CPXPARAM_MIP_Cuts_Gomory-Disjunctive-MIRCut-FlowCovers:FlowCovers 4
2
Node Left Objective IInf Best_Integer Best_Bound ItCnt Gap
0 0 40.5363 2 40.5363 49
0 0 40.5363 2 Disjcuts:1 56
0+ 0 nan nan 40.6800 40.5363 nan 0.35%
0+ 0 nan nan 40.6800 40.5363 nan 0.35%
0 0 40.5363 2 40.6800 40.5363 104 0.35%
0 0 40.5363 2 40.6800 Fract:1 108 0.35%
0 0 40.5363 2 40.6800 Fract:1 110 0.35%
0 1 40.6788 2 40.6800 40.6791 110 0.00%
CPXPARAM_MIP_Cuts_Gomory-Disjunctive-MIRCut-FlowCovers:Gomory 0
CPXPARAM_MIP_Cuts_Gomory-Disjunctive-MIRCut-FlowCovers:Disjunctive 0
CPXPARAM_MIP_Cuts_Gomory-Disjunctive-MIRCut-FlowCovers:MIRCut 2
CPXPARAM_MIP_Cuts_Gomory-Disjunctive-MIRCut-FlowCovers:FlowCovers 0
3
Node Left Objective IInf Best_Integer Best_Bound ItCnt Gap
0 0 6.4123 1 6.4123 41
0+ 0 nan nan 6.4123 6.4123 nan 0.00%
0 0 cutoff 6.4123 6.4123 41 0.00% 0
CPXPARAM_MIP_Cuts_Gomory-Disjunctive-MIRCut-FlowCovers:Gomory 0
CPXPARAM_MIP_Cuts_Gomory-Disjunctive-MIRCut-FlowCovers:Disjunctive 0
CPXPARAM_MIP_Cuts_Gomory-Disjunctive-MIRCut-FlowCovers:MIRCut 0
CPXPARAM_MIP_Cuts_Gomory-Disjunctive-MIRCut-FlowCovers:FlowCovers 0
4
Node Left Objective IInf Best_Integer Best_Bound ItCnt Gap
0 0 50.7422 6 50.7422 57
0 0 50.8153 9 Cuts:12 71
0 0 51.5275 9 Cuts:13 84
0+ 0 nan nan 54.5576 51.5275 nan 5.55%
0+ 0 nan nan 54.5576 51.5275 nan 5.55%
0 0 51.5275 9 54.5576 51.5275 143 5.55%
0 0 51.7955 9 54.5576 Cuts:6 156 5.06%
0 0 51.8733 7 54.5576 Fract:5 165 4.92%
0 0 51.8963 9 54.5576 Fract:3 170 4.88%
0 2 52.0006 5 54.5576 52.0090 170 4.67%
CPXPARAM_MIP_Cuts_Gomory-Disjunctive-MIRCut-FlowCovers:Gomory 0
CPXPARAM_MIP_Cuts_Gomory-Disjunctive-MIRCut-FlowCovers:Disjunctive 0
CPXPARAM_MIP_Cuts_Gomory-Disjunctive-MIRCut-FlowCovers:MIRCut 7
CPXPARAM_MIP_Cuts_Gomory-Disjunctive-MIRCut-FlowCovers:FlowCovers 2
5
Node Left Objective IInf Best_Integer Best_Bound ItCnt Gap
0 0 2.3864 6 2.3864 56
0 0 2.6966 8 Cuts:7 69
0 0 3.4209 8 Cuts:11 82
0+ 0 nan nan 13.6225 3.4209 nan 74.89%
0 0 4.6375 8 13.6225 Cuts:10 97 65.96%
0 0 5.6737 8 13.6225 Cuts:11 117 58.35%
0 0 6.3856 8 13.6225 Cuts:8 131 53.12%
0 2 6.4183 6 13.6225 6.4606 131 52.57%
CPXPARAM_MIP_Cuts_Gomory-Disjunctive-MIRCut-FlowCovers:Gomory 0
CPXPARAM_MIP_Cuts_Gomory-Disjunctive-MIRCut-FlowCovers:Disjunctive 0
CPXPARAM_MIP_Cuts_Gomory-Disjunctive-MIRCut-FlowCovers:MIRCut 4
CPXPARAM_MIP_Cuts_Gomory-Disjunctive-MIRCut-FlowCovers:FlowCovers 4
6
Node Left Objective IInf Best_Integer Best_Bound ItCnt Gap
0+ 0 nan nan 698.6785 -80.3724 nan 111.50%
0 0 49.1770 2 698.6785 49.1770 57 92.96%
0 0 49.1770 2 698.6785 Disjcuts:1 60 92.96%
0 2 49.1770 2 698.6785 49.1770 62 92.96%
CPXPARAM_MIP_Cuts_Gomory-Disjunctive-MIRCut-FlowCovers:Gomory 0
CPXPARAM_MIP_Cuts_Gomory-Disjunctive-MIRCut-FlowCovers:Disjunctive 0
CPXPARAM_MIP_Cuts_Gomory-Disjunctive-MIRCut-FlowCovers:MIRCut 0
CPXPARAM_MIP_Cuts_Gomory-Disjunctive-MIRCut-FlowCovers:FlowCovers 1
7
Node Left Objective IInf Best_Integer Best_Bound ItCnt Gap
0 0 7.4387 2 7.4387 48
0+ 0 nan nan 9.7351 7.4387 nan 23.59%
0 0 7.4387 2 9.7351 Cuts:2 52 23.59%
0+ 0 nan nan 9.7351 7.4387 nan 23.59%
0 0 7.4387 2 9.7351 7.4387 103 23.59%
0 0 7.4770 3 9.7351 Fract:2 107 23.19%
0 0 7.8866 4 9.7351 Cuts:4 112 18.99%
0 0 8.3397 3 9.7351 Fract:3 117 14.33%
0 0 8.6622 3 9.7351 Fract:2 119 11.02%
0 0 8.6710 3 9.7351 Fract:1 120 10.93%
0 0 cutoff 9.7351 8.6710 122 10.93% 0
CPXPARAM_MIP_Cuts_Gomory-Disjunctive-MIRCut-FlowCovers:Gomory 0
CPXPARAM_MIP_Cuts_Gomory-Disjunctive-MIRCut-FlowCovers:Disjunctive 0
CPXPARAM_MIP_Cuts_Gomory-Disjunctive-MIRCut-FlowCovers:MIRCut 3
CPXPARAM_MIP_Cuts_Gomory-Disjunctive-MIRCut-FlowCovers:FlowCovers 0
8
Node Left Objective IInf Best_Integer Best_Bound ItCnt Gap
0 0 65.7942 6 65.7942 62
0 0 65.8151 8 Cuts:13 76
0 0 65.8554 8 Cuts:13 89
0 0 66.0309 8 Cuts:9 102
0+ 0 nan nan 73.7936 66.0309 nan 10.52%
0 0 66.2252 8 73.7936 Cuts:11 107 10.26%
0+ 0 nan nan 67.9165 66.2252 nan 2.49%
0+ 0 nan nan 67.9165 66.2252 nan 2.49%
0 0 66.2252 8 67.9165 66.2252 181 2.49%
0 0 66.2511 8 67.9165 Cuts:7 185 2.45%
0 2 66.2945 5 67.9165 66.3104 185 2.36%
CPXPARAM_MIP_Cuts_Gomory-Disjunctive-MIRCut-FlowCovers:Gomory 0
CPXPARAM_MIP_Cuts_Gomory-Disjunctive-MIRCut-FlowCovers:Disjunctive 0
CPXPARAM_MIP_Cuts_Gomory-Disjunctive-MIRCut-FlowCovers:MIRCut 3
CPXPARAM_MIP_Cuts_Gomory-Disjunctive-MIRCut-FlowCovers:FlowCovers 4
9
Node Left Objective IInf Best_Integer Best_Bound ItCnt Gap
0 0 11.8594 6 11.8594 54
0 0 13.4298 8 Cuts:15 69
0 0 14.4404 8 Cuts:13 83
0 0 14.9834 9 Cuts:14 96
0 0 15.3251 9 Cuts:14 104
0 0 15.6767 9 Cuts:7 115
0 2 15.6767 9 15.8057 115 0 0
CPXPARAM_MIP_Cuts_Gomory-Disjunctive-MIRCut-FlowCovers:Gomory 0
CPXPARAM_MIP_Cuts_Gomory-Disjunctive-MIRCut-FlowCovers:Disjunctive 0
CPXPARAM_MIP_Cuts_Gomory-Disjunctive-MIRCut-FlowCovers:MIRCut 3
CPXPARAM_MIP_Cuts_Gomory-Disjunctive-MIRCut-FlowCovers:FlowCovers 9
10
Node Left Objective IInf Best_Integer Best_Bound ItCnt Gap
0 0 60.5073 2 60.5073 52
0+ 0 nan nan 60.5115 60.5073 nan 0.01%
CPXPARAM_MIP_Cuts_Gomory-Disjunctive-MIRCut-FlowCovers:Gomory 0
CPXPARAM_MIP_Cuts_Gomory-Disjunctive-MIRCut-FlowCovers:Disjunctive 0
CPXPARAM_MIP_Cuts_Gomory-Disjunctive-MIRCut-FlowCovers:MIRCut 0
CPXPARAM_MIP_Cuts_Gomory-Disjunctive-MIRCut-FlowCovers:FlowCovers 0
11
Node Left Objective IInf Best_Integer Best_Bound ItCnt Gap
0 0 16.6537 2 16.6537 50
0+ 0 nan nan 16.6575 16.6537 nan 0.02%
0+ 0 nan nan 16.6575 16.6537 nan 0.02%
0 0 16.6537 1 16.6575 16.6537 109 0.02%
0 0 cutoff 16.6575 113 0.00% 0 0
CPXPARAM_MIP_Cuts_Gomory-Disjunctive-MIRCut-FlowCovers:Gomory 0
CPXPARAM_MIP_Cuts_Gomory-Disjunctive-MIRCut-FlowCovers:Disjunctive 0
CPXPARAM_MIP_Cuts_Gomory-Disjunctive-MIRCut-FlowCovers:MIRCut 0
CPXPARAM_MIP_Cuts_Gomory-Disjunctive-MIRCut-FlowCovers:FlowCovers 0
12
Node Left Objective IInf Best_Integer Best_Bound ItCnt Gap
0 0 44.2061 6 44.2061 61
0 0 45.3583 9 Cuts:14 78
0 0 46.8971 9 Cuts:16 93
0 0 48.3498 9 Cuts:15 106
0 0 49.2300 9 Cuts:10 125
0 0 49.7124 9 Cuts:9 137
0 0 49.8742 9 Disjcuts:1 142
0 0 49.9521 9 Cuts:4 145
0 0 49.9573 8 Disjcuts:1 148
0+ 0 nan nan 55.3987 49.9573 nan 9.82%
0+ 0 nan nan 55.3987 49.9573 nan 9.82%
0 0 49.9573 8 55.3987 49.9573 229 9.82%
0 2 49.9979 8 55.3987 50.1136 229 9.54%
CPXPARAM_MIP_Cuts_Gomory-Disjunctive-MIRCut-FlowCovers:Gomory 0
CPXPARAM_MIP_Cuts_Gomory-Disjunctive-MIRCut-FlowCovers:Disjunctive 1
CPXPARAM_MIP_Cuts_Gomory-Disjunctive-MIRCut-FlowCovers:MIRCut 1
CPXPARAM_MIP_Cuts_Gomory-Disjunctive-MIRCut-FlowCovers:FlowCovers 7
13
Node Left Objective IInf Best_Integer Best_Bound ItCnt Gap
0 0 10.2945 6 10.2945 57
0+ 0 nan nan 16.4316 10.2945 nan 37.35%
0 0 10.3786 7 16.4316 Cuts:6 70 36.84%
0 0 10.7261 8 16.4316 Cuts:11 77 34.72%
0 0 11.3699 8 16.4316 Cuts:10 89 30.80%
0 0 11.8216 8 16.4316 Cuts:11 101 28.06%
0 0 12.0590 8 16.4316 Cuts:10 111 26.61%
0 0 12.0747 8 16.4316 MIRcuts:1 112 26.52%
0 2 12.0985 7 16.4316 12.1562 112 26.02%
CPXPARAM_MIP_Cuts_Gomory-Disjunctive-MIRCut-FlowCovers:Gomory 0
CPXPARAM_MIP_Cuts_Gomory-Disjunctive-MIRCut-FlowCovers:Disjunctive 1
CPXPARAM_MIP_Cuts_Gomory-Disjunctive-MIRCut-FlowCovers:MIRCut 2
CPXPARAM_MIP_Cuts_Gomory-Disjunctive-MIRCut-FlowCovers:FlowCovers 5
14
Node Left Objective IInf Best_Integer Best_Bound ItCnt Gap
0 0 46.5469 2 46.5469 53
0+ 0 nan nan 47.4290 46.5469 nan 1.86%
0 0 46.5469 2 47.4290 Disjcuts:1 57 1.86%
0+ 0 nan nan 47.4290 46.5469 nan 1.86%
0 0 46.5469 2 47.4290 46.5469 111 1.86%
0 0 cutoff 47.4290 119 0.00% 0 0
CPXPARAM_MIP_Cuts_Gomory-Disjunctive-MIRCut-FlowCovers:Gomory 0
CPXPARAM_MIP_Cuts_Gomory-Disjunctive-MIRCut-FlowCovers:Disjunctive 0
CPXPARAM_MIP_Cuts_Gomory-Disjunctive-MIRCut-FlowCovers:MIRCut 0
CPXPARAM_MIP_Cuts_Gomory-Disjunctive-MIRCut-FlowCovers:FlowCovers 1
15
Node Left Objective IInf Best_Integer Best_Bound ItCnt Gap
0+ 0 nan nan 754.6210 -94.3684 nan 112.51%
0 0 10.7585 2 754.6210 10.7585 50 98.57%
0 0 10.7585 2 754.6210 Cuts:2 53 98.57%
0+ 0 nan nan 15.2716 10.7585 nan 29.55%
0 0 10.7585 2 15.2716 Cuts:2 56 29.55%
0 2 10.7585 2 15.2716 10.7585 56 29.55%
CPXPARAM_MIP_Cuts_Gomory-Disjunctive-MIRCut-FlowCovers:Gomory 0
CPXPARAM_MIP_Cuts_Gomory-Disjunctive-MIRCut-FlowCovers:Disjunctive 0
CPXPARAM_MIP_Cuts_Gomory-Disjunctive-MIRCut-FlowCovers:MIRCut 2
CPXPARAM_MIP_Cuts_Gomory-Disjunctive-MIRCut-FlowCovers:FlowCovers 2
16
Node Left Objective IInf Best_Integer Best_Bound ItCnt Gap
0 0 58.8715 6 58.8715 57
0 0 59.6641 7 Cuts:6 72
0 0 60.7947 6 Cuts:8 83
0+ 0 nan nan 61.8856 60.7947 nan 1.76%
0+ 0 nan nan 61.8856 60.7947 nan 1.76%
0 0 60.7952 4 61.8856 60.7952 147 1.76%
0 0 60.9634 4 61.8856 Fract:3 151 1.49%
0 0 61.0198 5 61.8856 Fract:3 158 1.40%
0 0 61.0769 5 61.8856 Cuts:6 167 1.31%
0 0 integral 0 61.8856 61.0769 178 1.31%
0 0 61.8856 0 61.8856 61.8856 178 0.00%
CPXPARAM_MIP_Cuts_Gomory-Disjunctive-MIRCut-FlowCovers:Gomory 0
CPXPARAM_MIP_Cuts_Gomory-Disjunctive-MIRCut-FlowCovers:Disjunctive 0
CPXPARAM_MIP_Cuts_Gomory-Disjunctive-MIRCut-FlowCovers:MIRCut 2
CPXPARAM_MIP_Cuts_Gomory-Disjunctive-MIRCut-FlowCovers:FlowCovers 3
17
Node Left Objective IInf Best_Integer Best_Bound ItCnt Gap
0 0 10.2675 6 10.2675 65
0 0 10.4496 8 Cuts:11 78
0 0 11.6677 8 Cuts:14 97
0+ 0 nan nan 21.7788 11.6677 nan 46.43%
0 0 12.4149 9 21.7788 Cuts:13 108 43.00%
0 0 12.6675 9 21.7788 Cuts:9 121 41.84%
0 0 12.9269 9 21.7788 Cuts:10 138 40.64%
0 0 12.9411 9 21.7788 Cuts:4 143 40.58%
0 2 12.9539 7 21.7788 12.9638 143 40.48%
CPXPARAM_MIP_Cuts_Gomory-Disjunctive-MIRCut-FlowCovers:Gomory 1
CPXPARAM_MIP_Cuts_Gomory-Disjunctive-MIRCut-FlowCovers:Disjunctive 1
CPXPARAM_MIP_Cuts_Gomory-Disjunctive-MIRCut-FlowCovers:MIRCut 4
CPXPARAM_MIP_Cuts_Gomory-Disjunctive-MIRCut-FlowCovers:FlowCovers 5
18
Node Left Objective IInf Best_Integer Best_Bound ItCnt Gap
0+ 0 nan nan 850.5680 -92.8051 nan 110.91%
0 0 58.3813 2 850.5680 58.3813 51 93.14%
0 0 58.3813 2 850.5680 Cuts:5 55 93.14%
0+ 0 nan nan 58.4112 58.3813 nan 0.05%
0+ 0 nan nan 58.4112 58.3813 nan 0.05%
0 0 58.3813 2 58.4112 58.3813 111 0.05%
0 0 cutoff 58.4112 58.3813 118 0.05% 0
CPXPARAM_MIP_Cuts_Gomory-Disjunctive-MIRCut-FlowCovers:Gomory 0
CPXPARAM_MIP_Cuts_Gomory-Disjunctive-MIRCut-FlowCovers:Disjunctive 0
CPXPARAM_MIP_Cuts_Gomory-Disjunctive-MIRCut-FlowCovers:MIRCut 2
CPXPARAM_MIP_Cuts_Gomory-Disjunctive-MIRCut-FlowCovers:FlowCovers 2
19
Node Left Objective IInf Best_Integer Best_Bound ItCnt Gap
0+ 0 nan nan 682.2187 -97.6235 nan 114.31%
0 0 15.5882 2 682.2187 15.5882 47 97.72%
0 0 15.5882 2 682.2187 Disjcuts:1 49 97.72%
0+ 0 nan nan 15.7874 15.5882 nan 1.26%
0 0 15.5882 2 15.7874 Cuts:2 52 1.26%
0+ 0 nan nan 15.7874 15.5882 nan 1.26%
0 0 15.5882 2 15.7874 15.5882 98 1.26%
0 0 15.5882 2 15.7874 Cuts:3 104 1.26%
0 2 15.6366 3 15.7874 15.6410 104 0.93%
CPXPARAM_MIP_Cuts_Gomory-Disjunctive-MIRCut-FlowCovers:Gomory 0
CPXPARAM_MIP_Cuts_Gomory-Disjunctive-MIRCut-FlowCovers:Disjunctive 0
CPXPARAM_MIP_Cuts_Gomory-Disjunctive-MIRCut-FlowCovers:MIRCut 2
CPXPARAM_MIP_Cuts_Gomory-Disjunctive-MIRCut-FlowCovers:FlowCovers 2
20
Node Left Objective IInf Best_Integer Best_Bound ItCnt Gap
0 0 31.6179 6 31.6179 61
0 0 31.6334 7 Cuts:6 71
0 0 integral 0 34.4860 34.4860 92 0.00%
CPXPARAM_MIP_Cuts_Gomory-Disjunctive-MIRCut-FlowCovers:Gomory 0
CPXPARAM_MIP_Cuts_Gomory-Disjunctive-MIRCut-FlowCovers:Disjunctive 0
CPXPARAM_MIP_Cuts_Gomory-Disjunctive-MIRCut-FlowCovers:MIRCut 0
CPXPARAM_MIP_Cuts_Gomory-Disjunctive-MIRCut-FlowCovers:FlowCovers 0
21
Node Left Objective IInf Best_Integer Best_Bound ItCnt Gap
0 0 5.4416 6 5.4416 61
0 0 5.6164 8 Cuts:9 81
0 0 7.0166 7 Cuts:7 100
0+ 0 nan nan 9.1778 7.0166 nan 23.55%
0 0 7.1688 7 9.1778 Cuts:10 109 21.89%
0 0 8.0263 6 9.1778 Cuts:7 130 12.55%
0+ 0 nan nan 9.1778 8.0263 nan 12.55%
0 0 8.5799 3 9.1778 8.5799 184 6.52%
0 0 8.7113 2 9.1778 Cuts:3 189 5.08%
0 0 cutoff 9.1778 196 0.00% 0 0
CPXPARAM_MIP_Cuts_Gomory-Disjunctive-MIRCut-FlowCovers:Gomory 0
CPXPARAM_MIP_Cuts_Gomory-Disjunctive-MIRCut-FlowCovers:Disjunctive 0
CPXPARAM_MIP_Cuts_Gomory-Disjunctive-MIRCut-FlowCovers:MIRCut 0
CPXPARAM_MIP_Cuts_Gomory-Disjunctive-MIRCut-FlowCovers:FlowCovers 1
22
Node Left Objective IInf Best_Integer Best_Bound ItCnt Gap
0 0 28.4414 2 28.4414 42
0+ 0 nan nan 28.5540 28.4414 nan 0.39%
0 0 28.4414 2 28.5540 Cuts:2 46 0.39%
0+ 0 nan nan 28.5540 28.4414 nan 0.39%
0 0 28.4414 2 28.5540 28.4414 91 0.39%
0 0 28.4414 2 28.5540 Fract:2 95 0.39%
0 0 28.5275 2 28.5540 Fract:2 110 0.09%
0 0 28.5433 2 28.5540 Fract:1 112 0.04%
0+ 0 nan nan 28.5434 28.5433 nan 0.00%
CPXPARAM_MIP_Cuts_Gomory-Disjunctive-MIRCut-FlowCovers:Gomory 0
CPXPARAM_MIP_Cuts_Gomory-Disjunctive-MIRCut-FlowCovers:Disjunctive 0
CPXPARAM_MIP_Cuts_Gomory-Disjunctive-MIRCut-FlowCovers:MIRCut 2
CPXPARAM_MIP_Cuts_Gomory-Disjunctive-MIRCut-FlowCovers:FlowCovers 1
23
Node Left Objective IInf Best_Integer Best_Bound ItCnt Gap
0 0 3.9556 2 3.9556 52
0+ 0 nan nan 4.0841 3.9556 nan 3.15%
0+ 0 nan nan 4.0841 3.9556 nan 3.15%
0 0 3.9556 1 4.0841 3.9556 109 3.15%
0 0 3.9573 1 4.0841 Fract:1 111 3.10%
0 0 cutoff 4.0841 117 0.00% 0 0
CPXPARAM_MIP_Cuts_Gomory-Disjunctive-MIRCut-FlowCovers:Gomory 0
CPXPARAM_MIP_Cuts_Gomory-Disjunctive-MIRCut-FlowCovers:Disjunctive 0
CPXPARAM_MIP_Cuts_Gomory-Disjunctive-MIRCut-FlowCovers:MIRCut 1
CPXPARAM_MIP_Cuts_Gomory-Disjunctive-MIRCut-FlowCovers:FlowCovers 0
24
Node Left Objective IInf Best_Integer Best_Bound ItCnt Gap
0 0 34.8025 6 34.8025 60
0+ 0 nan nan 38.6713 34.8025 nan 10.00%
0 0 34.9677 9 38.6713 Cuts:13 76 9.58%
0 0 35.8238 8 38.6713 Cuts:9 89 7.36%
0+ 0 nan nan 38.6713 35.8238 nan 7.36%
0 0 35.8238 8 38.6713 35.8238 158 7.36%
0 0 36.0991 8 38.6713 Cuts:8 171 6.65%
0 0 36.2793 8 38.6713 Fract:5 182 6.19%
0 0 36.5490 7 38.6713 Cuts:7 190 5.49%
0 0 36.5496 7 38.6713 Flowcuts:1 191 5.49%
0 0 cutoff 38.6713 36.5496 191 5.49% 0
CPXPARAM_MIP_Cuts_Gomory-Disjunctive-MIRCut-FlowCovers:Gomory 1
CPXPARAM_MIP_Cuts_Gomory-Disjunctive-MIRCut-FlowCovers:Disjunctive 0
CPXPARAM_MIP_Cuts_Gomory-Disjunctive-MIRCut-FlowCovers:MIRCut 7
CPXPARAM_MIP_Cuts_Gomory-Disjunctive-MIRCut-FlowCovers:FlowCovers 1
25
Node Left Objective IInf Best_Integer Best_Bound ItCnt Gap
0 0 0.4196 6 0.4196 63
0 0 0.6887 7 Cuts:7 81
0 0 1.7246 6 Cuts:8 106
0 0 integral 0 7.4242 7.4242 138 0.00%
CPXPARAM_MIP_Cuts_Gomory-Disjunctive-MIRCut-FlowCovers:Gomory 0
CPXPARAM_MIP_Cuts_Gomory-Disjunctive-MIRCut-FlowCovers:Disjunctive 0
CPXPARAM_MIP_Cuts_Gomory-Disjunctive-MIRCut-FlowCovers:MIRCut 0
CPXPARAM_MIP_Cuts_Gomory-Disjunctive-MIRCut-FlowCovers:FlowCovers 0
26
Node Left Objective IInf Best_Integer Best_Bound ItCnt Gap
0 0 integral 0 36.9182 36.9182 54 0.00%
CPXPARAM_MIP_Cuts_Gomory-Disjunctive-MIRCut-FlowCovers:Gomory 0
CPXPARAM_MIP_Cuts_Gomory-Disjunctive-MIRCut-FlowCovers:Disjunctive 0
CPXPARAM_MIP_Cuts_Gomory-Disjunctive-MIRCut-FlowCovers:MIRCut 0
CPXPARAM_MIP_Cuts_Gomory-Disjunctive-MIRCut-FlowCovers:FlowCovers 0
27
Node Left Objective IInf Best_Integer Best_Bound ItCnt Gap
0 0 4.5323 2 4.5323 44
0+ 0 nan nan 4.5514 4.5323 nan 0.42%
0 0 4.5323 2 4.5514 Disjcuts:1 48 0.42%
0+ 0 nan nan 4.5514 4.5323 nan 0.42%
0 0 4.5323 2 4.5514 4.5323 101 0.42%
0 0 4.5323 2 4.5514 Fract:1 105 0.42%
0 1 4.5505 2 4.5514 4.5506 107 0.02%
CPXPARAM_MIP_Cuts_Gomory-Disjunctive-MIRCut-FlowCovers:Gomory 0
CPXPARAM_MIP_Cuts_Gomory-Disjunctive-MIRCut-FlowCovers:Disjunctive 0
CPXPARAM_MIP_Cuts_Gomory-Disjunctive-MIRCut-FlowCovers:MIRCut 1
CPXPARAM_MIP_Cuts_Gomory-Disjunctive-MIRCut-FlowCovers:FlowCovers 1
28
Node Left Objective IInf Best_Integer Best_Bound ItCnt Gap
0 0 63.6500 6 63.6500 54
0 0 64.7973 8 Cuts:8 71
0 0 68.1201 7 Cuts:10 83
0 0 70.7672 7 Cuts:11 99
0 0 71.7054 7 Cuts:12 119
0+ 0 nan nan 74.1734 71.7054 nan 3.33%
0+ 0 nan nan 74.1734 71.7054 nan 3.33%
0 0 71.7054 7 74.1734 71.7054 186 3.33%
0 0 71.8365 7 74.1734 Cuts:3 194 3.15%
0 0 72.2577 6 74.1734 Fract:1 203 2.58%
0 0 cutoff 74.1734 226 0.00% 0 0
CPXPARAM_MIP_Cuts_Gomory-Disjunctive-MIRCut-FlowCovers:Gomory 0
CPXPARAM_MIP_Cuts_Gomory-Disjunctive-MIRCut-FlowCovers:Disjunctive 1
CPXPARAM_MIP_Cuts_Gomory-Disjunctive-MIRCut-FlowCovers:MIRCut 3
CPXPARAM_MIP_Cuts_Gomory-Disjunctive-MIRCut-FlowCovers:FlowCovers 0
29
Node Left Objective IInf Best_Integer Best_Bound ItCnt Gap
0+ 0 nan nan 994.8986 -114.3356 nan 111.49%
0+ 0 nan nan 37.2949 -114.3356 nan 406.57%
0 0 6.3884 6 37.2949 6.3884 54 82.87%
0 0 6.8576 9 37.2949 Cuts:10 69 81.61%
0 0 7.5623 9 37.2949 Cuts:8 83 79.72%
0 0 7.8110 9 37.2949 Fract:4 90 79.06%
0 0 7.9490 9 37.2949 Fract:7 95 78.69%
0 0 8.1242 9 37.2949 Fract:4 105 78.22%
0 0 8.1695 8 37.2949 Fract:2 108 78.09%
0+ 0 nan nan 16.1240 8.1695 nan 49.33%
0 2 8.6217 6 16.1240 8.8838 108 44.90%
CPXPARAM_MIP_Cuts_Gomory-Disjunctive-MIRCut-FlowCovers:Gomory 0
CPXPARAM_MIP_Cuts_Gomory-Disjunctive-MIRCut-FlowCovers:Disjunctive 0
CPXPARAM_MIP_Cuts_Gomory-Disjunctive-MIRCut-FlowCovers:MIRCut 9
CPXPARAM_MIP_Cuts_Gomory-Disjunctive-MIRCut-FlowCovers:FlowCovers 0
30
Node Left Objective IInf Best_Integer Best_Bound ItCnt Gap
0+ 0 nan nan 514.4143 -106.7235 nan 120.75%
0+ 0 nan nan 83.5731 -106.7235 nan 227.70%
0 0 69.0899 2 83.5731 69.0899 47 17.33%
0 0 69.0899 2 83.5731 Fract:2 51 17.33%
0 0 69.0899 2 83.5731 Cuts:3 53 17.33%
0 2 69.0899 2 83.5731 69.0899 53 17.33%
CPXPARAM_MIP_Cuts_Gomory-Disjunctive-MIRCut-FlowCovers:Gomory 0
CPXPARAM_MIP_Cuts_Gomory-Disjunctive-MIRCut-FlowCovers:Disjunctive 0
CPXPARAM_MIP_Cuts_Gomory-Disjunctive-MIRCut-FlowCovers:MIRCut 3
CPXPARAM_MIP_Cuts_Gomory-Disjunctive-MIRCut-FlowCovers:FlowCovers 0
31
Node Left Objective IInf Best_Integer Best_Bound ItCnt Gap
0 0 7.6579 2 7.6579 41
0+ 0 nan nan 8.0780 7.6579 nan 5.20%
0 0 7.6579 2 8.0780 Cuts:2 44 5.20%
0+ 0 nan nan 8.0780 7.6579 nan 5.20%
0 0 7.6579 2 8.0780 7.6579 89 5.20%
0 0 7.6579 2 8.0780 Fract:1 93 5.20%
0 0 8.0777 2 8.0780 Cuts:3 103 0.00%
CPXPARAM_MIP_Cuts_Gomory-Disjunctive-MIRCut-FlowCovers:Gomory 0
CPXPARAM_MIP_Cuts_Gomory-Disjunctive-MIRCut-FlowCovers:Disjunctive 0
CPXPARAM_MIP_Cuts_Gomory-Disjunctive-MIRCut-FlowCovers:MIRCut 2
CPXPARAM_MIP_Cuts_Gomory-Disjunctive-MIRCut-FlowCovers:FlowCovers 0
32
Node Left Objective IInf Best_Integer Best_Bound ItCnt Gap
0 0 46.2013 6 46.2013 60
0 0 46.2394 7 Cuts:6 71
0 0 46.4378 7 Cuts:6 83
0 0 46.9437 7 Cuts:9 91
0 0 47.3137 7 Cuts:8 105
0+ 0 nan nan 49.3481 47.3137 nan 4.12%
0+ 0 nan nan 49.3481 47.3137 nan 4.12%
0 0 47.3137 7 49.3481 47.3137 186 4.12%
0 0 47.5145 7 49.3481 Fract:3 194 3.72%
0 0 cutoff 49.3481 47.5145 194 3.72% 0
CPXPARAM_MIP_Cuts_Gomory-Disjunctive-MIRCut-FlowCovers:Gomory 0
CPXPARAM_MIP_Cuts_Gomory-Disjunctive-MIRCut-FlowCovers:Disjunctive 0
CPXPARAM_MIP_Cuts_Gomory-Disjunctive-MIRCut-FlowCovers:MIRCut 5
CPXPARAM_MIP_Cuts_Gomory-Disjunctive-MIRCut-FlowCovers:FlowCovers 1
33
Node Left Objective IInf Best_Integer Best_Bound ItCnt Gap
0 0 0.8948 6 0.8948 57
0 0 1.6642 8 Cuts:8 70
0 0 7.3876 6 Cuts:5 89
0+ 0 nan nan 11.6907 7.3876 nan 36.81%
0 0 cutoff 11.6907 108 0.00% 0 0
CPXPARAM_MIP_Cuts_Gomory-Disjunctive-MIRCut-FlowCovers:Gomory 0
CPXPARAM_MIP_Cuts_Gomory-Disjunctive-MIRCut-FlowCovers:Disjunctive 0
CPXPARAM_MIP_Cuts_Gomory-Disjunctive-MIRCut-FlowCovers:MIRCut 1
CPXPARAM_MIP_Cuts_Gomory-Disjunctive-MIRCut-FlowCovers:FlowCovers 3
34
Node Left Objective IInf Best_Integer Best_Bound ItCnt Gap
0 0 41.8656 2 41.8656 44
0+ 0 nan nan 41.9255 41.8656 nan 0.14%
0 0 cutoff 41.9255 41.8656 51 0.14% 0
CPXPARAM_MIP_Cuts_Gomory-Disjunctive-MIRCut-FlowCovers:Gomory 0
CPXPARAM_MIP_Cuts_Gomory-Disjunctive-MIRCut-FlowCovers:Disjunctive 0
CPXPARAM_MIP_Cuts_Gomory-Disjunctive-MIRCut-FlowCovers:MIRCut 0
CPXPARAM_MIP_Cuts_Gomory-Disjunctive-MIRCut-FlowCovers:FlowCovers 0
35
Node Left Objective IInf Best_Integer Best_Bound ItCnt Gap
0 0 10.6421 2 10.6421 45
0+ 0 nan nan 10.9052 10.6421 nan 2.41%
0+ 0 nan nan 10.9052 10.6421 nan 2.41%
0 0 10.6421 1 10.9052 10.6421 99 2.41%
0 0 10.6487 1 10.9052 Fract:1 101 2.35%
0 0 cutoff 10.9052 101 0.00% 0 0
CPXPARAM_MIP_Cuts_Gomory-Disjunctive-MIRCut-FlowCovers:Gomory 0
CPXPARAM_MIP_Cuts_Gomory-Disjunctive-MIRCut-FlowCovers:Disjunctive 0
CPXPARAM_MIP_Cuts_Gomory-Disjunctive-MIRCut-FlowCovers:MIRCut 1
CPXPARAM_MIP_Cuts_Gomory-Disjunctive-MIRCut-FlowCovers:FlowCovers 0
36
Node Left Objective IInf Best_Integer Best_Bound ItCnt Gap
0 0 48.4886 6 48.4886 59
0 0 48.5199 7 Cuts:3 68
0 0 49.2284 5 Cuts:7 76
0+ 0 nan nan 52.9256 49.2284 nan 6.99%
0+ 0 nan nan 52.9256 49.2284 nan 6.99%
0 0 49.2284 5 52.9256 49.2284 144 6.99%
0 0 49.5216 7 52.9256 Cuts:3 152 6.43%
0 0 49.6091 7 52.9256 Fract:4 157 6.27%
0 0 49.7119 6 52.9256 Fract:2 163 6.07%
0 0 49.7225 7 52.9256 Fract:2 168 6.05%
0 0 49.7229 7 52.9256 Disjcuts:1 170 6.05%
0 0 cutoff 52.9256 49.7229 170 6.05% 0
CPXPARAM_MIP_Cuts_Gomory-Disjunctive-MIRCut-FlowCovers:Gomory 0
CPXPARAM_MIP_Cuts_Gomory-Disjunctive-MIRCut-FlowCovers:Disjunctive 0
CPXPARAM_MIP_Cuts_Gomory-Disjunctive-MIRCut-FlowCovers:MIRCut 5
CPXPARAM_MIP_Cuts_Gomory-Disjunctive-MIRCut-FlowCovers:FlowCovers 1
37
Node Left Objective IInf Best_Integer Best_Bound ItCnt Gap
0 0 -6.1266 6 -6.1266 62
0 0 -5.2987 9 Cuts:15 76
0 0 -3.7377 8 Cuts:12 91
0 0 -2.1337 8 Cuts:13 109
0 0 -1.1212 8 Cuts:14 120
0 0 -0.6501 8 Cuts:10 134
0 0 -0.5952 8 Disjcuts:1 137
0 0 -0.5709 8 Cuts:5 139
0+ 0 nan nan 10.0443 -0.5709 nan 105.68%
0 2 -0.5170 7 10.0443 -0.4311 139 104.29%
CPXPARAM_MIP_Cuts_Gomory-Disjunctive-MIRCut-FlowCovers:Gomory 0
CPXPARAM_MIP_Cuts_Gomory-Disjunctive-MIRCut-FlowCovers:Disjunctive 0
CPXPARAM_MIP_Cuts_Gomory-Disjunctive-MIRCut-FlowCovers:MIRCut 1
CPXPARAM_MIP_Cuts_Gomory-Disjunctive-MIRCut-FlowCovers:FlowCovers 11
38
Node Left Objective IInf Best_Integer Best_Bound ItCnt Gap
0 0 47.4773 2 47.4773 45
0+ 0 nan nan 47.5785 47.4773 nan 0.21%
0+ 0 nan nan 47.5785 47.4773 nan 0.21%
0 0 47.4773 2 47.5785 47.4773 93 0.21%
0 0 47.4773 2 47.5785 Cuts:2 97 0.21%
0 0 cutoff 47.5785 101 0.00% 0 0
CPXPARAM_MIP_Cuts_Gomory-Disjunctive-MIRCut-FlowCovers:Gomory 0
CPXPARAM_MIP_Cuts_Gomory-Disjunctive-MIRCut-FlowCovers:Disjunctive 0
CPXPARAM_MIP_Cuts_Gomory-Disjunctive-MIRCut-FlowCovers:MIRCut 1
CPXPARAM_MIP_Cuts_Gomory-Disjunctive-MIRCut-FlowCovers:FlowCovers 1
39
Node Left Objective IInf Best_Integer Best_Bound ItCnt Gap
0 0 7.0905 2 7.0905 43
0 0 7.0905 2 Disjcuts:1 46
0+ 0 nan nan 7.1260 7.0905 nan 0.50%
0+ 0 nan nan 7.1260 7.0905 nan 0.50%
0 0 7.0905 1 7.1260 7.0905 89 0.50%
0 0 cutoff 7.1260 92 0.00% 0 0
CPXPARAM_MIP_Cuts_Gomory-Disjunctive-MIRCut-FlowCovers:Gomory 0
CPXPARAM_MIP_Cuts_Gomory-Disjunctive-MIRCut-FlowCovers:Disjunctive 0
CPXPARAM_MIP_Cuts_Gomory-Disjunctive-MIRCut-FlowCovers:MIRCut 0
CPXPARAM_MIP_Cuts_Gomory-Disjunctive-MIRCut-FlowCovers:FlowCovers 0
